7
0, 573, 355, 248, 658, 299, 719
573, 0, 352, 335, 651, 274, 208
355, 352, 0, 160, 381, 217, 413
248, 335, 160, 0, 537, 85, 471
658, 651, 381, 537, 0, 599, 586
299, 274, 217, 85, 599, 0, 437
719, 208, 413, 471, 586, 437, 0
